(set-logic QF_S)
(declare-fun var0 () String)
(assert (str.in.re var0 (re.++ (re.* (re.+ (str.to.re "0"))) (re.++ (re.union (re.+ (str.to.re "111")) (re.+ (str.to.re "22"))) (re.++ (re.union (re.union (str.to.re "3") (str.to.re "44")) (re.union (str.to.re "55") (str.to.re "666"))) (re.++ (re.* (re.* (str.to.re "77"))) (re.++ (re.* (re.+ (str.to.re "88"))) (re.++ (re.* (re.union (str.to.re "99") (str.to.re "a"))) (re.++ (re.* (re.* (str.to.re "bbb"))) (re.++ (re.* (re.* (str.to.re "ccc"))) (re.++ (re.* (re.union (str.to.re "ddd") (str.to.re "ee"))) (re.* (re.* (str.to.re "ff"))))))))))))))
(assert (<= 276 (str.len var0)))
(check-sat)